14971
13
135030
3230
 0 1 1 1077 64  11 0 27 59 95 17 31 28 39 50 52 0
 0 1 1 1252 66  11 0 58 12 41 21 75 88 96 54 68 0
 0 1 1 1214 65  11 0 19 63 72 10 86 100 62 8 49 0
 0 1 1 1094 66  10 0 23 13 57 107 82 48 47 40 0
 0 1 1 1498 62  10 0 70 44 81 94 37 7 35 73 0
 0 1 1 1251 64  10 0 79 32 74 78 29 16 90 1 0
 0 1 1 416 42  7 0 91 38 108 3 14 0
 0 1 1 1147 66  11 0 105 20 92 97 42 106 67 34 45 0
 0 1 1 886 65  10 0 5 46 89 51 85 11 77 6 0
 0 1 1 1549 62  11 0 98 66 53 15 26 87 84 18 109 0
 0 1 1 1085 66  12 0 56 102 33 9 101 4 24 103 25 69 0
 0 1 1 1285 65  12 0 71 93 104 60 61 22 83 76 55 30 0
 0 1 1 1217 63  9 0 99 65 36 64 43 2 80 0
